# 3d Lennard-Jones melt

units		lj
atom_style	atomic

lattice		fcc 0.8442
region		box block 0 20 0 20 0 20
create_box	1 box
create_atoms	1 box
mass		1 1.0

velocity	all create 1.0 1 loop geom

pair_style	lj/cut 2.5
pair_coeff	1 1 1.0 1.0 2.5

fix	1 all nvt temp 1.0 1.0 0.1

thermo		10
run		500
